(declare-const a Real)
(declare-const b Real)
(declare-const c Real)
(assert (= (* a b c) 1))
(assert (> a 0))
(assert (> b 0))
(assert (> c 0))
(assert (not (<= (+ (/ 3 2) (* (pow (* (pow (* (pow b (/ 4 3)) (pow c (/ 4 3))) (* (pow a (/ -5 3)) (pow (+ b c) -1))) (pow (* (pow (+ (* (pow b (/ -5 3)) (pow (+ a c) -1)) (* (pow c (/ -5 3)) (pow (+ a b) -1))) (/ -1 3)) (pow (+ (* b (pow c (/ -5 3)) (pow (+ a b) -1)) (* c (pow b (/ -5 3)) (pow (+ a c) -1))) (/ 4 3))) (pow a (* 4 (pow 3 -1))))) (pow (+ (pow a (* 4 (pow 3 -1))) (* (pow a (/ -5 3)) (pow (+ b c) -1))) -1)) (+ (* -1 (pow a (/ 4 3))) (* -1 (pow a (/ -5 3)) (pow (+ b c) -1))))) 0)))
(check-sat)
(get-model)
(exit)(pow c (/ -5 3)) (pow (+ a b) -1)) (* c (pow b (/ -5 3)) (pow (+ a c) -1)))) (/ 4 3))) (* -1 (pow a (/ -5 3)) (pow (+ b c) -1))))) 0)))
(check-sat)
(get-model)
(exit)